NAME          
ROWS
 N  OBJ
 L  c1
COLUMNS
    MARKER    'MARKER'                 'INTORG'
    x[1]      c1        720
    x[1]      OBJ       -490
    x[2]      c1        454
    x[2]      OBJ       -433
    x[3]      c1        836
    x[3]      OBJ       -219
    x[4]      c1        844
    x[4]      OBJ       -899
    x[5]      c1        982
    x[5]      OBJ       -191
    x[6]      c1        519
    x[6]      OBJ       -863
    x[7]      c1        505
    x[7]      OBJ       -976
    x[8]      c1        473
    x[8]      OBJ       -390
    x[9]      c1        101
    x[9]      OBJ       -925
    x[10]     c1        758
    x[10]     OBJ       -403
    x[11]     c1        630
    x[11]     OBJ       -241
    x[12]     c1        618
    x[12]     OBJ       -385
    x[13]     c1        53
    x[13]     OBJ       -243
    x[14]     c1        686
    x[14]     OBJ       -244
    x[15]     c1        492
    x[15]     OBJ       -28
    x[16]     c1        474
    x[16]     OBJ       -956
    x[17]     c1        70
    x[17]     OBJ       -862
    x[18]     c1        341
    x[18]     OBJ       -766
    x[19]     c1        521
    x[19]     OBJ       -550
    x[20]     c1        864
    x[20]     OBJ       -410
    x[21]     c1        642
    x[21]     OBJ       -580
    x[22]     c1        760
    x[22]     OBJ       -931
    x[23]     c1        223
    x[23]     OBJ       -279
    x[24]     c1        217
    x[24]     OBJ       -571
    x[25]     c1        978
    x[25]     OBJ       -746
    x[26]     c1        982
    x[26]     OBJ       -144
    x[27]     c1        853
    x[27]     OBJ       -53
    x[28]     c1        79
    x[28]     OBJ       -132
    x[29]     c1        139
    x[29]     OBJ       -648
    x[30]     c1        945
    x[30]     OBJ       -614
    x[31]     c1        31
    x[31]     OBJ       -168
    x[32]     c1        488
    x[32]     OBJ       -145
    x[33]     c1        399
    x[33]     OBJ       -799
    x[34]     c1        63
    x[34]     OBJ       -207
    x[35]     c1        682
    x[35]     OBJ       -703
    x[36]     c1        536
    x[36]     OBJ       -264
    x[37]     c1        262
    x[37]     OBJ       -513
    x[38]     c1        114
    x[38]     OBJ       -934
    x[39]     c1        85
    x[39]     OBJ       -190
    x[40]     c1        655
    x[40]     OBJ       -310
    x[41]     c1        936
    x[41]     OBJ       -406
    x[42]     c1        608
    x[42]     OBJ       -908
    x[43]     c1        341
    x[43]     OBJ       -743
    x[44]     c1        190
    x[44]     OBJ       -361
    x[45]     c1        667
    x[45]     OBJ       -947
    x[46]     c1        370
    x[46]     OBJ       -385
    x[47]     c1        529
    x[47]     OBJ       -29
    x[48]     c1        924
    x[48]     OBJ       -81
    x[49]     c1        550
    x[49]     OBJ       -763
    x[50]     c1        84
    x[50]     OBJ       -359
    x[51]     c1        503
    x[51]     OBJ       -748
    x[52]     c1        838
    x[52]     OBJ       -356
    x[53]     c1        788
    x[53]     OBJ       -890
    x[54]     c1        355
    x[54]     OBJ       -36
    x[55]     c1        883
    x[55]     OBJ       -495
    x[56]     c1        697
    x[56]     OBJ       -773
    x[57]     c1        366
    x[57]     OBJ       -575
    x[58]     c1        437
    x[58]     OBJ       -359
    x[59]     c1        16
    x[59]     OBJ       -575
    x[60]     c1        309
    x[60]     OBJ       -500
    x[61]     c1        180
    x[61]     OBJ       -172
    x[62]     c1        439
    x[62]     OBJ       -154
    x[63]     c1        355
    x[63]     OBJ       -445
    x[64]     c1        600
    x[64]     OBJ       -995
    x[65]     c1        74
    x[65]     OBJ       -334
    x[66]     c1        144
    x[66]     OBJ       -337
    x[67]     c1        788
    x[67]     OBJ       -893
    x[68]     c1        5
    x[68]     OBJ       -983
    x[69]     c1        938
    x[69]     OBJ       -347
    x[70]     c1        779
    x[70]     OBJ       -741
    x[71]     c1        488
    x[71]     OBJ       -784
    x[72]     c1        815
    x[72]     OBJ       -561
    x[73]     c1        273
    x[73]     OBJ       -216
    x[74]     c1        489
    x[74]     OBJ       -867
    x[75]     c1        462
    x[75]     OBJ       -941
    x[76]     c1        466
    x[76]     OBJ       -931
    x[77]     c1        928
    x[77]     OBJ       -673
    x[78]     c1        301
    x[78]     OBJ       -94
    x[79]     c1        830
    x[79]     OBJ       -19
    x[80]     c1        291
    x[80]     OBJ       -455
    x[81]     c1        491
    x[81]     OBJ       -15
    x[82]     c1        142
    x[82]     OBJ       -59
    x[83]     c1        581
    x[83]     OBJ       -147
    x[84]     c1        959
    x[84]     OBJ       -433
    x[85]     c1        369
    x[85]     OBJ       -729
    x[86]     c1        452
    x[86]     OBJ       -236
    x[87]     c1        375
    x[87]     OBJ       -309
    x[88]     c1        89
    x[88]     OBJ       -251
    x[89]     c1        186
    x[89]     OBJ       -103
    x[90]     c1        100
    x[90]     OBJ       -658
    x[91]     c1        680
    x[91]     OBJ       -120
    x[92]     c1        805
    x[92]     OBJ       -608
    x[93]     c1        26
    x[93]     OBJ       -98
    x[94]     c1        144
    x[94]     OBJ       -573
    x[95]     c1        270
    x[95]     OBJ       -781
    x[96]     c1        753
    x[96]     OBJ       -300
    x[97]     c1        239
    x[97]     OBJ       -82
    x[98]     c1        606
    x[98]     OBJ       -986
    x[99]     c1        189
    x[99]     OBJ       -233
    x[100]    c1        878
    x[100]    OBJ       -306
RHS
    rhs       c1        24222
RANGES
BOUNDS
 LO bounds    x[1]      0
 PL bounds    x[1]
 LO bounds    x[2]      0
 PL bounds    x[2]
 LO bounds    x[3]      0
 PL bounds    x[3]
 LO bounds    x[4]      0
 PL bounds    x[4]
 LO bounds    x[5]      0
 PL bounds    x[5]
 LO bounds    x[6]      0
 PL bounds    x[6]
 LO bounds    x[7]      0
 PL bounds    x[7]
 LO bounds    x[8]      0
 PL bounds    x[8]
 LO bounds    x[9]      0
 PL bounds    x[9]
 LO bounds    x[10]     0
 PL bounds    x[10]
 LO bounds    x[11]     0
 PL bounds    x[11]
 LO bounds    x[12]     0
 PL bounds    x[12]
 LO bounds    x[13]     0
 PL bounds    x[13]
 LO bounds    x[14]     0
 PL bounds    x[14]
 LO bounds    x[15]     0
 PL bounds    x[15]
 LO bounds    x[16]     0
 PL bounds    x[16]
 LO bounds    x[17]     0
 PL bounds    x[17]
 LO bounds    x[18]     0
 PL bounds    x[18]
 LO bounds    x[19]     0
 PL bounds    x[19]
 LO bounds    x[20]     0
 PL bounds    x[20]
 LO bounds    x[21]     0
 PL bounds    x[21]
 LO bounds    x[22]     0
 PL bounds    x[22]
 LO bounds    x[23]     0
 PL bounds    x[23]
 LO bounds    x[24]     0
 PL bounds    x[24]
 LO bounds    x[25]     0
 PL bounds    x[25]
 LO bounds    x[26]     0
 PL bounds    x[26]
 LO bounds    x[27]     0
 PL bounds    x[27]
 LO bounds    x[28]     0
 PL bounds    x[28]
 LO bounds    x[29]     0
 PL bounds    x[29]
 LO bounds    x[30]     0
 PL bounds    x[30]
 LO bounds    x[31]     0
 PL bounds    x[31]
 LO bounds    x[32]     0
 PL bounds    x[32]
 LO bounds    x[33]     0
 PL bounds    x[33]
 LO bounds    x[34]     0
 PL bounds    x[34]
 LO bounds    x[35]     0
 PL bounds    x[35]
 LO bounds    x[36]     0
 PL bounds    x[36]
 LO bounds    x[37]     0
 PL bounds    x[37]
 LO bounds    x[38]     0
 PL bounds    x[38]
 LO bounds    x[39]     0
 PL bounds    x[39]
 LO bounds    x[40]     0
 PL bounds    x[40]
 LO bounds    x[41]     0
 PL bounds    x[41]
 LO bounds    x[42]     0
 PL bounds    x[42]
 LO bounds    x[43]     0
 PL bounds    x[43]
 LO bounds    x[44]     0
 PL bounds    x[44]
 LO bounds    x[45]     0
 PL bounds    x[45]
 LO bounds    x[46]     0
 PL bounds    x[46]
 LO bounds    x[47]     0
 PL bounds    x[47]
 LO bounds    x[48]     0
 PL bounds    x[48]
 LO bounds    x[49]     0
 PL bounds    x[49]
 LO bounds    x[50]     0
 PL bounds    x[50]
 LO bounds    x[51]     0
 PL bounds    x[51]
 LO bounds    x[52]     0
 PL bounds    x[52]
 LO bounds    x[53]     0
 PL bounds    x[53]
 LO bounds    x[54]     0
 PL bounds    x[54]
 LO bounds    x[55]     0
 PL bounds    x[55]
 LO bounds    x[56]     0
 PL bounds    x[56]
 LO bounds    x[57]     0
 PL bounds    x[57]
 LO bounds    x[58]     0
 PL bounds    x[58]
 LO bounds    x[59]     0
 PL bounds    x[59]
 LO bounds    x[60]     0
 PL bounds    x[60]
 LO bounds    x[61]     0
 PL bounds    x[61]
 LO bounds    x[62]     0
 PL bounds    x[62]
 LO bounds    x[63]     0
 PL bounds    x[63]
 LO bounds    x[64]     0
 PL bounds    x[64]
 LO bounds    x[65]     0
 PL bounds    x[65]
 LO bounds    x[66]     0
 PL bounds    x[66]
 LO bounds    x[67]     0
 PL bounds    x[67]
 LO bounds    x[68]     0
 PL bounds    x[68]
 LO bounds    x[69]     0
 PL bounds    x[69]
 LO bounds    x[70]     0
 PL bounds    x[70]
 LO bounds    x[71]     0
 PL bounds    x[71]
 LO bounds    x[72]     0
 PL bounds    x[72]
 LO bounds    x[73]     0
 PL bounds    x[73]
 LO bounds    x[74]     0
 PL bounds    x[74]
 LO bounds    x[75]     0
 PL bounds    x[75]
 LO bounds    x[76]     0
 PL bounds    x[76]
 LO bounds    x[77]     0
 PL bounds    x[77]
 LO bounds    x[78]     0
 PL bounds    x[78]
 LO bounds    x[79]     0
 PL bounds    x[79]
 LO bounds    x[80]     0
 PL bounds    x[80]
 LO bounds    x[81]     0
 PL bounds    x[81]
 LO bounds    x[82]     0
 PL bounds    x[82]
 LO bounds    x[83]     0
 PL bounds    x[83]
 LO bounds    x[84]     0
 PL bounds    x[84]
 LO bounds    x[85]     0
 PL bounds    x[85]
 LO bounds    x[86]     0
 PL bounds    x[86]
 LO bounds    x[87]     0
 PL bounds    x[87]
 LO bounds    x[88]     0
 PL bounds    x[88]
 LO bounds    x[89]     0
 PL bounds    x[89]
 LO bounds    x[90]     0
 PL bounds    x[90]
 LO bounds    x[91]     0
 PL bounds    x[91]
 LO bounds    x[92]     0
 PL bounds    x[92]
 LO bounds    x[93]     0
 PL bounds    x[93]
 LO bounds    x[94]     0
 PL bounds    x[94]
 LO bounds    x[95]     0
 PL bounds    x[95]
 LO bounds    x[96]     0
 PL bounds    x[96]
 LO bounds    x[97]     0
 PL bounds    x[97]
 LO bounds    x[98]     0
 PL bounds    x[98]
 LO bounds    x[99]     0
 PL bounds    x[99]
 LO bounds    x[100]    0
 PL bounds    x[100]
ENDATA
